c leafs=66, vars=16, seed=1, tickle=None
p cnf 787 2116                                                                
e 17 18 19 20 21 22 23 24 25 26 27 28 29 30 31 32 33 34 35 36 37 38 39 40 41 42 43 44 45 46 47 48 49 50 51 52 53 54 55 56 57 58 59 60 61 62 63 64 65 66 67 68 69 70 71 72 73 74 75 76 77 78 79 80 81 82  0
a 1 2 3 4 5 6 7 8 9 10 11 12 13 14 15 16  0
e 83 84 85 86 87 88 89 90 91 92 93 94 95 96 97 98 99 100 101 102 103 104 105 106 107 108 109 110 111 112 113 114 115 116 117 118 119 120 121 122 123 124 125 126 127 128 129 130 131 132 133 134 135 136 137 138 139 140 141 142 143 144 145 146 147 148 149 150 151 152 153 154 155 156 157 158 159 160 161 162 163 164 165 166 167 168 169 170 171 172 173 174 175 176 177 178 179 180 181 182 183 184 185 186 187 188 189 190 191 192 193 194 195 196 197 198 199 200 201 202 203 204 205 206 207 208 209 210 211 212 213 214 215 216 217 218 219 220 221 222 223 224 225 226 227 228 229 230 231 232 233 234 235 236 237 238 239 240 241 242 243 244 245 246 247 248 249 250 251 252 253 254 255 256 257 258 259 260 261 262 263 264 265 266 267 268 269 270 271 272 273 274 275 276 277 278 279 280 281 282 283 284 285 286 287 288 289 290 291 292 293 294 295 296 297 298 299 300 301 302 303 304 305 306 307 308 309 310 311 312 313 314 315 316 317 318 319 320 321 322 323 324 325 326 327 328 329 330 331 332 333 334 335 336 337 338 339 340 341 342 343 344 345 346 347 348 349 350 351 352 353 354 355 356 357 358 359 360 361 362 363 364 365 366 367 368 369 370 371 372 373 374 375 376 377 378 379 380 381 382 383 384 385 386 387 388 389 390 391 392 393 394 395 396 397 398 399 400 401 402 403 404 405 406 407 408 409 410 411 412 413 414 415 416 417 418 419 420 421 422 423 424 425 426 427 428 429 430 431 432 433 434 435 436 437 438 439 440 441 442 443 444 445 446 447 448 449 450 451 452 453 454 455 456 457 458 459 460 461 462 463 464 465 466 467 468 469 470 471 472 473 474 475 476 477 478 479 480 481 482 483 484 485 486 487 488 489 490 491 492 493 494 495 496 497 498 499 500 501 502 503 504 505 506 507 508 509 510 511 512 513 514 515 516 517 518 519 520 521 522 523 524 525 526 527 528 529 530 531 532 533 534 535 536 537 538 539 540 541 542 543 544 545 546 547 548 549 550 551 552 553 554 555 556 557 558 559 560 561 562 563 564 565 566 567 568 569 570 571 572 573 574 575 576 577 578 579 580 581 582 583 584 585 586 587 588 589 590 591 592 593 594 595 596 597 598 599 600 601 602 603 604 605 606 607 608 609 610 611 612 613 614 615 616 617 618 619 620 621 622 623 624 625 626 627 628 629 630 631 632 633 634 635 636 637 638 639 640 641 642 643 644 645 646 647 648 649 650 651 652 653 654 655 656 657 658 659 660 661 662 663 664 665 666 667 668 669 670 671 672 673 674 675 676 677 678 679 680 681 682 683 684 685 686 687 688 689 690 691 692 693 694 695 696 697 698 699 700 701 702 703 704 705 706 707 708 709 710 711 712 713 714 715 716 717 718 719 720 721 722 723 724 725 726 727 728 729 730 731 732 733 734 735 736 737 738 739 740 741 742 743 744 745 746 747 748 749 750 751 752 753 754 755 756 757 758 759 760 761 762 763 764 765 766 767 768 769 770 771 772 773 774 775 776 777 778 779 780 781 782 783 784 785 786 787  0
787  0
83 26 14  0
-83 -26  0
-83 -14  0
84 -16 -26  0
-84 16  0
-84 26  0
85 25 3  0
-85 -25  0
-85 -3  0
86 -6 -25  0
-86 6  0
-86 25  0
87 27 -12  0
-87 -27  0
-87 12  0
88 1 -27  0
-88 -1  0
-88 27  0
89 28 -6  0
-89 -28  0
-89 6  0
90 9 -28  0
-90 -9  0
-90 28  0
91 -13 -30  0
-91 13  0
-91 30  0
92 30 3  0
-92 -30  0
-92 -3  0
93 29 -7  0
-93 -29  0
-93 7  0
94 11 -29  0
-94 -11  0
-94 29  0
-95 -12 32  0
95 12  0
95 -32  0
-96 -32 4  0
96 32  0
96 -4  0
-97 -31 3  0
97 31  0
97 -3  0
-98 16 31  0
98 -16  0
98 -31  0
99 19 -12  0
-99 -19  0
-99 12  0
100 -8 -19  0
-100 8  0
-100 19  0
101 20 12  0
-101 -20  0
-101 -12  0
102 -3 -20  0
-102 3  0
-102 20  0
-103 14 17  0
103 -14  0
103 -17  0
-104 -17 -15  0
104 17  0
104 15  0
-105 -18 6  0
105 18  0
105 -6  0
-106 -2 18  0
106 2  0
106 -18  0
107 -14 -24  0
-107 14  0
-107 24  0
108 24 11  0
-108 -24  0
-108 -11  0
109 -9 -23  0
-109 9  0
-109 23  0
110 23 7  0
-110 -23  0
-110 -7  0
111 -5 -21  0
-111 5  0
-111 21  0
112 21 13  0
-112 -21  0
-112 -13  0
113 -10 -22  0
-113 10  0
-113 22  0
114 22 15  0
-114 -22  0
-114 -15  0
-115 -42 -9  0
115 42  0
115 9  0
-116 -10 42  0
116 10  0
116 -42  0
-117 7 41  0
117 -7  0
117 -41  0
-118 -41 5  0
118 41  0
118 -5  0
119 43 15  0
-119 -43  0
-119 -15  0
120 -1 -43  0
-120 1  0
-120 43  0
121 45 -10  0
-121 -45  0
-121 10  0
122 3 -45  0
-122 -3  0
-122 45  0
123 44 -8  0
-123 -44  0
-123 8  0
124 9 -44  0
-124 -9  0
-124 44  0
125 2 -46  0
-125 -2  0
-125 46  0
126 46 -8  0
-126 -46  0
-126 8  0
127 47 3  0
-127 -47  0
-127 -3  0
128 16 -47  0
-128 -16  0
-128 47  0
-129 -12 49  0
129 12  0
129 -49  0
-130 -49 -10  0
130 49  0
130 10  0
-131 4 48  0
131 -4  0
131 -48  0
-132 -48 5  0
132 48  0
132 -5  0
-133 -40 9  0
133 40  0
133 -9  0
-134 7 40  0
134 -7  0
134 -40  0
-135 -39 -13  0
135 39  0
135 13  0
-136 -3 39  0
136 3  0
136 -39  0
-137 -37 5  0
137 37  0
137 -5  0
-138 16 37  0
138 -16  0
138 -37  0
-139 -38 -1  0
139 38  0
139 1  0
-140 -8 38  0
140 8  0
140 -38  0
-141 -6 34  0
141 6  0
141 -34  0
-142 -34 -9  0
142 34  0
142 9  0
-143 12 33  0
143 -12  0
143 -33  0
-144 -33 5  0
144 33  0
144 -5  0
-145 -7 35  0
145 7  0
145 -35  0
-146 -35 -15  0
146 35  0
146 15  0
-147 -36 -14  0
147 36  0
147 14  0
-148 -11 36  0
148 11  0
148 -36  0
149 10 -82  0
-149 -10  0
-149 82  0
150 82 5  0
-150 -82  0
-150 -5  0
151 14 -81  0
-151 -14  0
-151 81  0
152 81 12  0
-152 -81  0
-152 -12  0
-153 9 80  0
153 -9  0
153 -80  0
-154 -80 -3  0
154 80  0
154 3  0
-155 -79 -15  0
155 79  0
155 15  0
-156 2 79  0
156 -2  0
156 -79  0
-157 11 78  0
157 -11  0
157 -78  0
-158 -78 7  0
158 78  0
158 -7  0
-159 9 74  0
159 -9  0
159 -74  0
-160 -74 -7  0
160 74  0
160 7  0
-161 -75 -3  0
161 75  0
161 3  0
-162 10 75  0
162 -10  0
162 -75  0
163 77 -11  0
-163 -77  0
-163 11  0
164 -5 -77  0
-164 5  0
-164 77  0
165 76 -14  0
-165 -76  0
-165 14  0
166 -8 -76  0
-166 8  0
-166 76  0
167 67 10  0
-167 -67  0
-167 -10  0
168 -8 -67  0
-168 8  0
-168 67  0
169 66 14  0
-169 -66  0
-169 -14  0
170 6 -66  0
-170 -6  0
-170 66  0
-171 -69 -4  0
171 69  0
171 4  0
-172 -15 69  0
172 15  0
172 -69  0
-173 -1 68  0
173 1  0
173 -68  0
-174 -68 12  0
174 68  0
174 -12  0
175 -2 -72  0
-175 2  0
-175 72  0
176 72 -1  0
-176 -72  0
-176 1  0
177 73 8  0
-177 -73  0
-177 -8  0
178 -3 -73  0
-178 3  0
-178 73  0
179 70 -11  0
-179 -70  0
-179 11  0
180 4 -70  0
-180 -4  0
-180 70  0
181 -10 -71  0
-181 10  0
-181 71  0
182 71 -12  0
-182 -71  0
-182 12  0
183 56 3  0
-183 -56  0
-183 -3  0
184 -13 -56  0
-184 13  0
-184 56  0
185 57 -15  0
-185 -57  0
-185 15  0
186 12 -57  0
-186 -12  0
-186 57  0
187 54 1  0
-187 -54  0
-187 -1  0
188 -6 -54  0
-188 6  0
-188 54  0
189 55 4  0
-189 -55  0
-189 -4  0
190 5 -55  0
-190 -5  0
-190 55  0
191 -7 -51  0
-191 7  0
-191 51  0
192 51 -16  0
-192 -51  0
-192 16  0
193 -15 -50  0
-193 15  0
-193 50  0
194 50 -9  0
-194 -50  0
-194 9  0
195 52 1  0
-195 -52  0
-195 -1  0
196 13 -52  0
-196 -13  0
-196 52  0
197 53 5  0
-197 -53  0
-197 -5  0
198 -8 -53  0
-198 8  0
-198 53  0
199 8 -61  0
-199 -8  0
-199 61  0
200 61 9  0
-200 -61  0
-200 -9  0
201 3 -60  0
-201 -3  0
-201 60  0
202 60 2  0
-202 -60  0
-202 -2  0
203 58 -6  0
-203 -58  0
-203 6  0
204 -5 -58  0
-204 5  0
-204 58  0
205 59 16  0
-205 -59  0
-205 -16  0
206 -3 -59  0
-206 3  0
-206 59  0
207 -6 -63  0
-207 6  0
-207 63  0
208 63 1  0
-208 -63  0
-208 -1  0
209 62 -6  0
-209 -62  0
-209 6  0
210 -5 -62  0
-210 5  0
-210 62  0
211 64 -4  0
-211 -64  0
-211 4  0
212 -12 -64  0
-212 12  0
-212 64  0
213 16 -65  0
-213 -16  0
-213 65  0
214 65 3  0
-214 -65  0
-214 -3  0
215 10 -4  0
-215 -10  0
-215 4  0
216 4 -10  0
-216 -4  0
-216 10  0
217 5 -10  0
-217 -5  0
-217 10  0
218 10 -5  0
-218 -10  0
-218 5  0
-219 -1 16  0
219 1  0
219 -16  0
-220 -16 1  0
220 16  0
220 -1  0
-221 14 15  0
221 -14  0
221 -15  0
-222 -15 -14  0
222 15  0
222 14  0
-223 -5 6  0
223 5  0
223 -6  0
-224 -6 5  0
224 6  0
224 -5  0
-225 -3 15  0
225 3  0
225 -15  0
-226 -15 -8  0
226 15  0
226 8  0
-227 8 15  0
227 -8  0
227 -15  0
228 12 -16  0
-228 -12  0
-228 16  0
229 16 -12  0
-229 -16  0
-229 12  0
230 -7 -13  0
-230 7  0
-230 13  0
231 13 7  0
-231 -13  0
-231 -7  0
-232 -13 7  0
232 13  0
232 -7  0
-233 -7 13  0
233 7  0
233 -13  0
-234 12 16  0
234 -12  0
234 -16  0
-235 -16 -12  0
235 16  0
235 12  0
-236 -15 14  0
236 15  0
236 -14  0
-237 -14 15  0
237 14  0
237 -15  0
-238 5 6  0
238 -5  0
238 -6  0
-239 -6 -5  0
239 6  0
239 5  0
-240 -8 15  0
240 8  0
240 -15  0
-241 -15 8  0
241 15  0
241 -8  0
-242 -15 -3  0
242 15  0
242 3  0
243 8 -3  0
-243 -8  0
-243 3  0
244 3 -8  0
-244 -3  0
-244 8  0
245 -6 -16  0
-245 6  0
-245 16  0
246 16 6  0
-246 -16  0
-246 -6  0
-247 3 15  0
247 -3  0
247 -15  0
-248 -9 7  0
248 9  0
248 -7  0
-249 -7 9  0
249 7  0
249 -9  0
250 7 3  0
-250 -7  0
-250 -3  0
251 -3 -7  0
-251 3  0
-251 7  0
252 12 10  0
-252 -12  0
-252 -10  0
253 -10 -12  0
-253 10  0
-253 12  0
-254 -15 12  0
254 15  0
254 -12  0
-255 -12 15  0
255 12  0
255 -15  0
-256 7 9  0
256 -7  0
256 -9  0
-257 -9 -7  0
257 9  0
257 7  0
-258 -6 16  0
258 6  0
258 -16  0
-259 -16 6  0
259 16  0
259 -6  0
-260 83 84  0
260 -83  0
260 -84  0
-261 85 86  0
261 -85  0
261 -86  0
-262 87 88  0
262 -87  0
262 -88  0
-263 89 90  0
263 -89  0
263 -90  0
-264 91 92  0
264 -91  0
264 -92  0
-265 93 94  0
265 -93  0
265 -94  0
266 -95 -96  0
-266 95  0
-266 96  0
267 -97 -98  0
-267 97  0
-267 98  0
-268 99 100  0
268 -99  0
268 -100  0
-269 101 102  0
269 -101  0
269 -102  0
270 -103 -104  0
-270 103  0
-270 104  0
271 -105 -106  0
-271 105  0
-271 106  0
-272 107 108  0
272 -107  0
272 -108  0
-273 109 110  0
273 -109  0
273 -110  0
-274 111 112  0
274 -111  0
274 -112  0
-275 113 114  0
275 -113  0
275 -114  0
276 -115 -116  0
-276 115  0
-276 116  0
277 -117 -118  0
-277 117  0
-277 118  0
-278 119 120  0
278 -119  0
278 -120  0
-279 121 122  0
279 -121  0
279 -122  0
-280 123 124  0
280 -123  0
280 -124  0
-281 125 126  0
281 -125  0
281 -126  0
-282 127 128  0
282 -127  0
282 -128  0
283 -129 -130  0
-283 129  0
-283 130  0
284 -131 -132  0
-284 131  0
-284 132  0
285 -133 -134  0
-285 133  0
-285 134  0
286 -135 -136  0
-286 135  0
-286 136  0
287 -137 -138  0
-287 137  0
-287 138  0
288 -139 -140  0
-288 139  0
-288 140  0
289 -141 -142  0
-289 141  0
-289 142  0
290 -143 -144  0
-290 143  0
-290 144  0
291 -145 -146  0
-291 145  0
-291 146  0
292 -147 -148  0
-292 147  0
-292 148  0
-293 149 150  0
293 -149  0
293 -150  0
-294 151 152  0
294 -151  0
294 -152  0
295 -153 -154  0
-295 153  0
-295 154  0
296 -155 -156  0
-296 155  0
-296 156  0
297 -157 -158  0
-297 157  0
-297 158  0
298 -159 -160  0
-298 159  0
-298 160  0
299 -161 -162  0
-299 161  0
-299 162  0
-300 163 164  0
300 -163  0
300 -164  0
-301 165 166  0
301 -165  0
301 -166  0
-302 167 168  0
302 -167  0
302 -168  0
-303 169 170  0
303 -169  0
303 -170  0
304 -171 -172  0
-304 171  0
-304 172  0
305 -173 -174  0
-305 173  0
-305 174  0
-306 175 176  0
306 -175  0
306 -176  0
-307 177 178  0
307 -177  0
307 -178  0
-308 179 180  0
308 -179  0
308 -180  0
-309 181 182  0
309 -181  0
309 -182  0
-310 183 184  0
310 -183  0
310 -184  0
-311 185 186  0
311 -185  0
311 -186  0
-312 187 188  0
312 -187  0
312 -188  0
-313 189 190  0
313 -189  0
313 -190  0
-314 191 192  0
314 -191  0
314 -192  0
-315 193 194  0
315 -193  0
315 -194  0
-316 195 196  0
316 -195  0
316 -196  0
-317 197 198  0
317 -197  0
317 -198  0
-318 199 200  0
318 -199  0
318 -200  0
-319 201 202  0
319 -201  0
319 -202  0
-320 203 204  0
320 -203  0
320 -204  0
-321 205 206  0
321 -205  0
321 -206  0
-322 207 208  0
322 -207  0
322 -208  0
-323 209 210  0
323 -209  0
323 -210  0
-324 211 212  0
324 -211  0
324 -212  0
-325 213 214  0
325 -213  0
325 -214  0
-326 215 216  0
326 -215  0
326 -216  0
-327 217 218  0
327 -217  0
327 -218  0
328 -219 -220  0
-328 219  0
-328 220  0
329 -221 -222  0
-329 221  0
-329 222  0
330 -223 -224  0
-330 223  0
-330 224  0
331 -226 -227  0
-331 226  0
-331 227  0
-332 228 229  0
332 -228  0
332 -229  0
-333 230 231  0
333 -230  0
333 -231  0
334 -232 -233  0
-334 232  0
-334 233  0
335 -234 -235  0
-335 234  0
-335 235  0
336 -236 -237  0
-336 236  0
-336 237  0
337 -238 -239  0
-337 238  0
-337 239  0
338 -240 -241  0
-338 240  0
-338 241  0
-339 243 244  0
339 -243  0
339 -244  0
-340 245 246  0
340 -245  0
340 -246  0
341 -242 -247  0
-341 242  0
-341 247  0
342 -248 -249  0
-342 248  0
-342 249  0
-343 250 251  0
343 -250  0
343 -251  0
-344 252 253  0
344 -252  0
344 -253  0
345 -254 -255  0
-345 254  0
-345 255  0
346 -256 -257  0
-346 256  0
-346 257  0
347 -258 -259  0
-347 258  0
-347 259  0
-348 260 261  0
348 -260  0
348 -261  0
-349 -261 -260  0
349 261  0
349 260  0
-350 262 263  0
350 -262  0
350 -263  0
-351 -263 -262  0
351 263  0
351 262  0
-352 264 265  0
352 -264  0
352 -265  0
-353 -264 -265  0
353 264  0
353 265  0
-354 266 267  0
354 -266  0
354 -267  0
-355 -267 -266  0
355 267  0
355 266  0
-356 268 269  0
356 -268  0
356 -269  0
-357 -268 -269  0
357 268  0
357 269  0
-358 270 271  0
358 -270  0
358 -271  0
-359 -270 -271  0
359 270  0
359 271  0
-360 272 273  0
360 -272  0
360 -273  0
-361 -273 -272  0
361 273  0
361 272  0
-362 274 275  0
362 -274  0
362 -275  0
-363 -274 -275  0
363 274  0
363 275  0
364 -276 -277  0
-364 276  0
-364 277  0
365 277 276  0
-365 -277  0
-365 -276  0
366 -279 -280  0
-366 279  0
-366 280  0
367 -281 -282  0
-367 281  0
-367 282  0
368 282 281  0
-368 -282  0
-368 -281  0
369 -283 -284  0
-369 283  0
-369 284  0
370 283 284  0
-370 -283  0
-370 -284  0
-371 285 286  0
371 -285  0
371 -286  0
-372 -286 -285  0
372 286  0
372 285  0
-373 287 288  0
373 -287  0
373 -288  0
-374 -287 -288  0
374 287  0
374 288  0
-375 289 290  0
375 -289  0
375 -290  0
-376 -289 -290  0
376 289  0
376 290  0
-377 291 292  0
377 -291  0
377 -292  0
-378 -291 -292  0
378 291  0
378 292  0
379 -293 -294  0
-379 293  0
-379 294  0
380 293 294  0
-380 -293  0
-380 -294  0
-381 296 297  0
381 -296  0
381 -297  0
382 -298 -299  0
-382 298  0
-382 299  0
383 298 299  0
-383 -298  0
-383 -299  0
384 -300 -301  0
-384 300  0
-384 301  0
385 300 301  0
-385 -300  0
-385 -301  0
-386 302 303  0
386 -302  0
386 -303  0
-387 -303 -302  0
387 303  0
387 302  0
-388 304 305  0
388 -304  0
388 -305  0
-389 -304 -305  0
389 304  0
389 305  0
-390 306 307  0
390 -306  0
390 -307  0
-391 -307 -306  0
391 307  0
391 306  0
-392 308 309  0
392 -308  0
392 -309  0
-393 -308 -309  0
393 308  0
393 309  0
394 -310 -311  0
-394 310  0
-394 311  0
395 310 311  0
-395 -310  0
-395 -311  0
396 -312 -313  0
-396 312  0
-396 313  0
397 313 312  0
-397 -313  0
-397 -312  0
398 -314 -315  0
-398 314  0
-398 315  0
399 314 315  0
-399 -314  0
-399 -315  0
400 -316 -317  0
-400 316  0
-400 317  0
401 316 317  0
-401 -316  0
-401 -317  0
-402 318 319  0
402 -318  0
402 -319  0
-403 -319 -318  0
403 319  0
403 318  0
-404 320 321  0
404 -320  0
404 -321  0
-405 -320 -321  0
405 320  0
405 321  0
-406 322 323  0
406 -322  0
406 -323  0
-407 -323 -322  0
407 323  0
407 322  0
-408 324 325  0
408 -324  0
408 -325  0
-409 -325 -324  0
409 325  0
409 324  0
410 8 -327  0
-410 -8  0
-410 327  0
411 -8 -327  0
-411 8  0
-411 327  0
412 7 -328  0
-412 -7  0
-412 328  0
413 -7 -328  0
-413 7  0
-413 328  0
414 -329 -330  0
-414 329  0
-414 330  0
-415 3 331  0
415 -3  0
415 -331  0
-416 332 333  0
416 -332  0
416 -333  0
-417 334 335  0
417 -334  0
417 -335  0
-418 336 337  0
418 -336  0
418 -337  0
-419 3 338  0
419 -3  0
419 -338  0
420 11 -327  0
-420 -11  0
-420 327  0
421 -11 -327  0
-421 11  0
-421 327  0
422 9 -340  0
-422 -9  0
-422 340  0
423 -9 -340  0
-423 9  0
-423 340  0
424 6 -341  0
-424 -6  0
-424 341  0
425 -6 -341  0
-425 6  0
-425 341  0
426 2 -344  0
-426 -2  0
-426 344  0
427 -2 -344  0
-427 2  0
-427 344  0
428 -11 -344  0
-428 11  0
-428 344  0
-429 -8 345  0
429 8  0
429 -345  0
-430 8 345  0
430 -8  0
430 -345  0
431 -9 -347  0
-431 9  0
-431 347  0
432 9 -347  0
-432 -9  0
-432 347  0
433 -348 -349  0
-433 348  0
-433 349  0
434 -350 -351  0
-434 350  0
-434 351  0
435 -352 -353  0
-435 352  0
-435 353  0
436 -354 -355  0
-436 354  0
-436 355  0
437 -356 -357  0
-437 356  0
-437 357  0
438 -358 -359  0
-438 358  0
-438 359  0
439 -360 -361  0
-439 360  0
-439 361  0
440 -362 -363  0
-440 362  0
-440 363  0
-441 364 365  0
441 -364  0
441 -365  0
442 -278 -366  0
-442 278  0
-442 366  0
443 366 278  0
-443 -366  0
-443 -278  0
-444 367 368  0
444 -367  0
444 -368  0
-445 369 370  0
445 -369  0
445 -370  0
446 -371 -372  0
-446 371  0
-446 372  0
447 -373 -374  0
-447 373  0
-447 374  0
448 -375 -376  0
-448 375  0
-448 376  0
449 -377 -378  0
-449 377  0
-449 378  0
-450 379 380  0
450 -379  0
450 -380  0
451 -295 -381  0
-451 295  0
-451 381  0
452 295 381  0
-452 -295  0
-452 -381  0
-453 382 383  0
453 -382  0
453 -383  0
-454 384 385  0
454 -384  0
454 -385  0
455 -386 -387  0
-455 386  0
-455 387  0
456 -388 -389  0
-456 388  0
-456 389  0
457 -390 -391  0
-457 390  0
-457 391  0
458 -392 -393  0
-458 392  0
-458 393  0
-459 394 395  0
459 -394  0
459 -395  0
-460 396 397  0
460 -396  0
460 -397  0
-461 398 399  0
461 -398  0
461 -399  0
-462 400 401  0
462 -400  0
462 -401  0
463 -402 -403  0
-463 402  0
-463 403  0
464 -404 -405  0
-464 404  0
-464 405  0
465 -406 -407  0
-465 406  0
-465 407  0
466 -408 -409  0
-466 408  0
-466 409  0
467 -16 -410  0
-467 16  0
-467 410  0
468 16 -411  0
-468 -16  0
-468 411  0
-469 13 412  0
469 -13  0
469 -412  0
-470 -13 413  0
470 13  0
470 -413  0
471 -225 -415  0
-471 225  0
-471 415  0
-472 14 416  0
472 -14  0
472 -416  0
-473 -14 -416  0
473 14  0
473 416  0
-474 -1 417  0
474 1  0
474 -417  0
-475 1 417  0
475 -1  0
475 -417  0
476 -419 -242  0
-476 419  0
-476 242  0
477 -7 -420  0
-477 7  0
-477 420  0
478 7 -421  0
-478 -7  0
-478 421  0
479 -2 -422  0
-479 2  0
-479 422  0
480 2 -423  0
-480 -2  0
-480 423  0
-481 -5 424  0
481 5  0
481 -424  0
-482 5 425  0
482 -5  0
482 -425  0
483 11 -426  0
-483 -11  0
-483 426  0
484 11 -427  0
-484 -11  0
-484 427  0
-485 6 429  0
485 -6  0
485 -429  0
-486 -6 430  0
486 6  0
486 -430  0
-487 2 431  0
487 -2  0
487 -431  0
-488 -2 432  0
488 2  0
488 -432  0
489 -433 -434  0
-489 433  0
-489 434  0
490 -435 -436  0
-490 435  0
-490 436  0
491 -437 -438  0
-491 437  0
-491 438  0
492 -439 -440  0
-492 439  0
-492 440  0
-493 442 443  0
493 -442  0
493 -443  0
494 -444 -445  0
-494 444  0
-494 445  0
495 -446 -447  0
-495 446  0
-495 447  0
496 -448 -449  0
-496 448  0
-496 449  0
-497 451 452  0
497 -451  0
497 -452  0
-498 453 454  0
498 -453  0
498 -454  0
-499 455 456  0
499 -455  0
499 -456  0
500 -457 -458  0
-500 457  0
-500 458  0
501 -459 -460  0
-501 459  0
-501 460  0
-502 461 462  0
502 -461  0
502 -462  0
503 -463 -464  0
-503 463  0
-503 464  0
-504 465 466  0
504 -465  0
504 -466  0
-505 467 468  0
505 -467  0
505 -468  0
506 -469 -470  0
-506 469  0
-506 470  0
507 -472 -473  0
-507 472  0
-507 473  0
-508 477 478  0
508 -477  0
508 -478  0
-509 479 480  0
509 -479  0
509 -480  0
510 -481 -482  0
-510 481  0
-510 482  0
511 -3 -483  0
-511 3  0
-511 483  0
-512 484 428  0
512 -484  0
512 -428  0
513 -485 -486  0
-513 485  0
-513 486  0
514 -487 -488  0
-514 487  0
-514 488  0
515 -489 -490  0
-515 489  0
-515 490  0
516 489 490  0
-516 -489  0
-516 -490  0
517 -491 -492  0
-517 491  0
-517 492  0
518 492 491  0
-518 -492  0
-518 -491  0
519 -441 -493  0
-519 441  0
-519 493  0
520 -495 -496  0
-520 495  0
-520 496  0
521 495 496  0
-521 -495  0
-521 -496  0
522 -450 -497  0
-522 450  0
-522 497  0
523 -499 -500  0
-523 499  0
-523 500  0
524 500 499  0
-524 -500  0
-524 -499  0
525 -501 -502  0
-525 501  0
-525 502  0
526 502 501  0
-526 -502  0
-526 -501  0
527 -503 -504  0
-527 503  0
-527 504  0
528 504 503  0
-528 -504  0
-528 -503  0
-529 506 414  0
529 -506  0
529 -414  0
-530 -506 -414  0
530 506  0
530 414  0
-531 3 507  0
531 -3  0
531 -507  0
-532 -3 -507  0
532 3  0
532 507  0
-533 418 506  0
533 -418  0
533 -506  0
-534 -506 -418  0
534 506  0
534 418  0
535 5 -509  0
-535 -5  0
-535 509  0
536 -5 509  0
-536 5  0
-536 -509  0
537 -3 -509  0
-537 3  0
-537 509  0
538 3 -509  0
-538 -3  0
-538 509  0
539 3 -512  0
-539 -3  0
-539 512  0
-540 3 514  0
540 -3  0
540 -514  0
-541 -3 514  0
541 3  0
541 -514  0
-542 515 516  0
542 -515  0
542 -516  0
-543 517 518  0
543 -517  0
543 -518  0
544 -519 -494  0
-544 519  0
-544 494  0
545 494 519  0
-545 -494  0
-545 -519  0
-546 520 521  0
546 -520  0
546 -521  0
547 -522 -498  0
-547 522  0
-547 498  0
548 498 522  0
-548 -498  0
-548 -522  0
-549 523 524  0
549 -523  0
549 -524  0
-550 525 526  0
550 -525  0
550 -526  0
-551 527 528  0
551 -527  0
551 -528  0
552 -529 -530  0
-552 529  0
-552 530  0
553 -531 -532  0
-553 531  0
-553 532  0
554 -533 -534  0
-554 533  0
-554 534  0
-555 535 536  0
555 -535  0
555 -536  0
-556 511 539  0
556 -511  0
556 -539  0
557 -542 -543  0
-557 542  0
-557 543  0
-558 544 545  0
558 -544  0
558 -545  0
-559 547 548  0
559 -547  0
559 -548  0
560 -550 -551  0
-560 550  0
-560 551  0
561 9 -552  0
-561 -9  0
-561 552  0
562 -9 -552  0
-562 9  0
-562 552  0
-563 471 552  0
563 -471  0
563 -552  0
-564 1 553  0
564 -1  0
564 -553  0
-565 -1 553  0
565 1  0
565 -553  0
-566 9 554  0
566 -9  0
566 -554  0
-567 -9 554  0
567 9  0
567 -554  0
-568 471 554  0
568 -471  0
568 -554  0
569 1 -555  0
-569 -1  0
-569 555  0
570 -1 555  0
-570 1  0
-570 -555  0
-571 1 555  0
571 -1  0
571 -555  0
-572 -1 -555  0
572 1  0
572 555  0
-573 558 546  0
573 -558  0
573 -546  0
-574 559 549  0
574 -559  0
574 -549  0
-575 -7 561  0
575 7  0
575 -561  0
-576 7 562  0
576 -7  0
576 -562  0
-577 7 561  0
577 -7  0
577 -561  0
-578 -7 562  0
578 7  0
578 -562  0
579 -564 -474  0
-579 564  0
-579 474  0
580 -565 -475  0
-580 565  0
-580 475  0
-581 -7 566  0
581 7  0
581 -566  0
-582 7 567  0
582 -7  0
582 -567  0
-583 7 566  0
583 -7  0
583 -566  0
-584 -7 567  0
584 7  0
584 -567  0
-585 569 570  0
585 -569  0
585 -570  0
586 -571 -572  0
-586 571  0
-586 572  0
-587 557 573  0
587 -557  0
587 -573  0
-588 -573 -557  0
588 573  0
588 557  0
-589 574 560  0
589 -574  0
589 -560  0
-590 -574 -560  0
590 574  0
590 560  0
591 -575 -576  0
-591 575  0
-591 576  0
592 -577 -578  0
-592 577  0
-592 578  0
-593 -9 579  0
593 9  0
593 -579  0
-594 9 580  0
594 -9  0
594 -580  0
595 -581 -582  0
-595 581  0
-595 582  0
596 -583 -584  0
-596 583  0
-596 584  0
597 3 -585  0
-597 -3  0
-597 585  0
598 -3 -585  0
-598 3  0
-598 585  0
-599 -3 586  0
599 3  0
599 -586  0
-600 3 586  0
600 -3  0
600 -586  0
601 -587 -588  0
-601 587  0
-601 588  0
602 -589 -590  0
-602 589  0
-602 590  0
603 -591 -471  0
-603 591  0
-603 471  0
-604 -471 592  0
604 471  0
604 -592  0
605 -593 -594  0
-605 593  0
-605 594  0
-606 595 476  0
606 -595  0
606 -476  0
-607 596 -471  0
607 -596  0
607 471  0
-608 597 537  0
608 -597  0
608 -537  0
-609 538 598  0
609 -538  0
609 -598  0
610 -599 -540  0
-610 599  0
-610 540  0
611 -541 -600  0
-611 541  0
-611 600  0
612 -601 -602  0
-612 601  0
-612 602  0
-613 505 603  0
613 -505  0
613 -603  0
614 -563 -604  0
-614 563  0
-614 604  0
-615 606 505  0
615 -606  0
615 -505  0
616 -607 -568  0
-616 607  0
-616 568  0
617 -4 -608  0
-617 4  0
-617 608  0
618 4 -609  0
-618 -4  0
-618 609  0
-619 4 610  0
619 -4  0
619 -610  0
-620 -4 611  0
620 4  0
620 -611  0
-621 614 -505  0
621 -614  0
621 505  0
-622 616 -505  0
622 -616  0
622 505  0
-623 617 618  0
623 -617  0
623 -618  0
624 -619 -620  0
-624 619  0
-624 620  0
625 -613 -621  0
-625 613  0
-625 621  0
626 -615 -622  0
-626 615  0
-626 622  0
-627 625 605  0
627 -625  0
627 -605  0
628 2 -626  0
-628 -2  0
-628 626  0
629 -2 626  0
-629 2  0
-629 -626  0
630 339 625  0
-630 -339  0
-630 -625  0
-631 605 626  0
631 -605  0
631 -626  0
-632 626 339  0
632 -626  0
632 -339  0
-633 2 -625  0
633 -2  0
633 625  0
-634 -2 625  0
634 2  0
634 -625  0
-635 628 629  0
635 -628  0
635 -629  0
636 -633 -634  0
-636 633  0
-636 634  0
637 15 -635  0
-637 -15  0
-637 635  0
638 -15 635  0
-638 15  0
-638 -635  0
-639 15 636  0
639 -15  0
639 -636  0
-640 -15 -636  0
640 15  0
640 636  0
-641 637 638  0
641 -637  0
641 -638  0
642 -639 -640  0
-642 639  0
-642 640  0
643 -641 -339  0
-643 641  0
-643 339  0
-644 -339 642  0
644 339  0
644 -642  0
-645 643 630  0
645 -643  0
645 -630  0
646 -632 -644  0
-646 632  0
-646 644  0
-647 645 508  0
647 -645  0
647 -508  0
-648 -645 -508  0
648 645  0
648 508  0
-649 646 -508  0
649 -646  0
649 508  0
-650 -646 508  0
650 646  0
650 -508  0
651 -647 -648  0
-651 647  0
-651 648  0
652 -649 -650  0
-652 649  0
-652 650  0
-653 -605 651  0
653 605  0
653 -651  0
-654 -605 652  0
654 605  0
654 -652  0
655 -627 -653  0
-655 627  0
-655 653  0
656 -631 -654  0
-656 631  0
-656 654  0
-657 655 623  0
657 -655  0
657 -623  0
-658 13 655  0
658 -13  0
658 -655  0
-659 -13 655  0
659 13  0
659 -655  0
-660 -342 655  0
660 342  0
660 -655  0
-661 656 623  0
661 -656  0
661 -623  0
-662 -342 656  0
662 342  0
662 -656  0
663 13 -656  0
-663 -13  0
-663 656  0
664 -13 -656  0
-664 13  0
-664 656  0
-665 -8 658  0
665 8  0
665 -658  0
-666 8 659  0
666 -8  0
666 -659  0
-667 8 658  0
667 -8  0
667 -658  0
-668 -8 659  0
668 8  0
668 -659  0
-669 -8 663  0
669 8  0
669 -663  0
-670 8 664  0
670 -8  0
670 -664  0
-671 -8 664  0
671 8  0
671 -664  0
-672 8 663  0
672 -8  0
672 -663  0
673 -665 -666  0
-673 665  0
-673 666  0
674 -667 -668  0
-674 667  0
-674 668  0
675 -669 -670  0
-675 669  0
-675 670  0
676 -671 -672  0
-676 671  0
-676 672  0
-677 342 673  0
677 -342  0
677 -673  0
-678 342 674  0
678 -342  0
678 -674  0
-679 342 675  0
679 -342  0
679 -675  0
680 -346 -676  0
-680 346  0
-680 676  0
681 -677 -660  0
-681 677  0
-681 660  0
-682 678 -510  0
682 -678  0
682 510  0
-683 678 510  0
683 -678  0
683 -510  0
684 -662 -679  0
-684 662  0
-684 679  0
-685 -510 680  0
685 510  0
685 -680  0
-686 510 680  0
686 -510  0
686 -680  0
-687 510 681  0
687 -510  0
687 -681  0
-688 -510 681  0
688 510  0
688 -681  0
-689 510 684  0
689 -510  0
689 -684  0
-690 684 -510  0
690 -684  0
690 510  0
691 -687 -682  0
-691 687  0
-691 682  0
692 -683 -688  0
-692 683  0
-692 688  0
693 -689 -685  0
-693 689  0
-693 685  0
694 -686 -690  0
-694 686  0
-694 690  0
-695 691 -623  0
695 -691  0
695 623  0
-696 692 -623  0
696 -692  0
696 623  0
-697 -623 693  0
697 623  0
697 -693  0
698 -624 -694  0
-698 624  0
-698 694  0
699 -657 -695  0
-699 657  0
-699 695  0
-700 -11 696  0
700 11  0
700 -696  0
-701 11 696  0
701 -11  0
701 -696  0
-702 -343 696  0
702 343  0
702 -696  0
703 -661 -697  0
-703 661  0
-703 697  0
-704 -343 698  0
704 343  0
704 -698  0
-705 11 698  0
705 -11  0
705 -698  0
-706 -11 698  0
706 11  0
706 -698  0
-707 3 699  0
707 -3  0
707 -699  0
-708 11 699  0
708 -11  0
708 -699  0
-709 -11 699  0
709 11  0
709 -699  0
-710 -343 699  0
710 343  0
710 -699  0
-711 -3 699  0
711 3  0
711 -699  0
-712 699 -326  0
712 -699  0
712 326  0
-713 703 -326  0
713 -703  0
713 326  0
-714 -11 703  0
714 11  0
714 -703  0
-715 11 703  0
715 -11  0
715 -703  0
-716 -343 703  0
716 343  0
716 -703  0
-717 -3 703  0
717 3  0
717 -703  0
-718 3 703  0
718 -3  0
718 -703  0
719 -708 -700  0
-719 708  0
-719 700  0
720 -709 -701  0
-720 709  0
-720 701  0
721 -714 -705  0
-721 714  0
-721 705  0
722 -715 -706  0
-722 715  0
-722 706  0
-723 -8 719  0
723 8  0
723 -719  0
-724 8 720  0
724 -8  0
724 -720  0
-725 8 719  0
725 -8  0
725 -719  0
-726 -8 720  0
726 8  0
726 -720  0
-727 8 721  0
727 -8  0
727 -721  0
-728 -8 722  0
728 8  0
728 -722  0
-729 8 722  0
729 -8  0
729 -722  0
-730 -8 721  0
730 8  0
730 -721  0
731 -723 -724  0
-731 723  0
-731 724  0
732 -725 -726  0
-732 725  0
-732 726  0
733 -727 -728  0
-733 727  0
-733 728  0
734 -729 -730  0
-734 729  0
-734 730  0
-735 731 343  0
735 -731  0
735 -343  0
-736 732 343  0
736 -732  0
736 -343  0
-737 733 343  0
737 -733  0
737 -343  0
-738 734 343  0
738 -734  0
738 -343  0
739 -735 -702  0
-739 735  0
-739 702  0
740 -710 -736  0
-740 710  0
-740 736  0
741 -704 -737  0
-741 704  0
-741 737  0
742 -738 -716  0
-742 738  0
-742 716  0
-743 739 556  0
743 -739  0
743 -556  0
-744 740 -556  0
744 -740  0
744 556  0
-745 556 741  0
745 -556  0
745 -741  0
-746 742 -556  0
746 -742  0
746 556  0
747 -743 -744  0
-747 743  0
-747 744  0
748 -745 -746  0
-748 745  0
-748 746  0
-749 -3 747  0
749 3  0
749 -747  0
-750 3 747  0
750 -3  0
750 -747  0
-751 747 -326  0
751 -747  0
751 326  0
-752 3 748  0
752 -3  0
752 -748  0
-753 -3 748  0
753 3  0
753 -748  0
-754 748 -326  0
754 -748  0
754 326  0
755 -707 -749  0
-755 707  0
-755 749  0
756 -750 -711  0
-756 750  0
-756 711  0
757 -752 -717  0
-757 752  0
-757 717  0
758 -718 -753  0
-758 718  0
-758 753  0
-759 2 755  0
759 -2  0
759 -755  0
-760 -2 756  0
760 2  0
760 -756  0
-761 -2 755  0
761 2  0
761 -755  0
-762 2 756  0
762 -2  0
762 -756  0
-763 -2 757  0
763 2  0
763 -757  0
-764 2 758  0
764 -2  0
764 -758  0
-765 -2 758  0
765 2  0
765 -758  0
-766 2 757  0
766 -2  0
766 -757  0
767 -759 -760  0
-767 759  0
-767 760  0
768 -761 -762  0
-768 761  0
-768 762  0
769 -763 -764  0
-769 763  0
-769 764  0
770 -765 -766  0
-770 765  0
-770 766  0
-771 326 767  0
771 -326  0
771 -767  0
-772 326 768  0
772 -326  0
772 -768  0
-773 326 769  0
773 -326  0
773 -769  0
-774 326 770  0
774 -326  0
774 -770  0
775 -771 -712  0
-775 771  0
-775 712  0
776 -751 -772  0
-776 751  0
-776 772  0
777 -713 -773  0
-777 713  0
-777 773  0
778 -774 -754  0
-778 774  0
-778 754  0
-779 775 513  0
779 -775  0
779 -513  0
-780 -513 776  0
780 513  0
780 -776  0
-781 777 513  0
781 -777  0
781 -513  0
-782 -513 778  0
782 513  0
782 -778  0
783 -779 -780  0
-783 779  0
-783 780  0
784 -781 -782  0
-784 781  0
-784 782  0
-785 612 783  0
785 -612  0
785 -783  0
-786 784 -612  0
786 -784  0
786 612  0
787 -785 -786  0
-787 785  0
-787 786  0
